(set-info :status unknown)
(declare-const symbol_71 (_ BitVec 32))
(declare-const symbol_32 (_ BitVec 32))
(declare-const symbol_17 (_ BitVec 32))
(declare-const symbol_54 (_ BitVec 32))
(declare-const symbol_49 (_ BitVec 32))
(declare-const symbol_63 (_ BitVec 32))
(declare-const symbol_26 (_ BitVec 32))
(declare-const symbol_28 (_ BitVec 32))
(declare-const symbol_15 (_ BitVec 32))
(declare-const symbol_0 (_ BitVec 32))
(declare-const symbol_9 (_ BitVec 32))
(declare-const symbol_44 (_ BitVec 32))
(declare-const symbol_36 (_ BitVec 32))
(declare-const symbol_64 (_ BitVec 32))
(declare-const symbol_61 (_ BitVec 32))
(declare-const symbol_34 (_ BitVec 32))
(declare-const symbol_11 (_ BitVec 32))
(declare-const symbol_46 (_ BitVec 32))
(declare-const symbol_38 (_ BitVec 32))
(declare-const symbol_24 (_ BitVec 32))
(declare-const symbol_57 (_ BitVec 32))
(declare-const symbol_74 (_ BitVec 32))
(declare-const symbol_72 (_ BitVec 32))
(declare-const symbol_67 (_ BitVec 32))
(declare-const symbol_41 (_ BitVec 32))
(declare-const symbol_79 (_ BitVec 32))
(declare-const symbol_30 (_ BitVec 32))
(declare-const symbol_21 (_ BitVec 32))
(declare-const symbol_19 (_ BitVec 32))
(declare-const symbol_43 (_ BitVec 32))
(declare-const symbol_2 (_ BitVec 32))
(declare-const symbol_51 (_ BitVec 32))
(declare-const symbol_13 (_ BitVec 32))
(declare-const symbol_7 (_ BitVec 32))
(declare-const symbol_53 (_ BitVec 32))
(declare-const symbol_59 (_ BitVec 32))
(declare-const symbol_56 (_ BitVec 32))
(declare-const symbol_69 (_ BitVec 32))
(declare-const symbol_76 (_ BitVec 32))
(declare-const symbol_5 (_ BitVec 32))
(declare-const symbol_48 (_ BitVec 32))
(assert (bvsge symbol_79 (_ bv0 32)))
(assert (not (bvsge symbol_76 (_ bv0 32))))
(assert (not (bvsge symbol_74 (_ bv0 32))))
(assert (not (bvsge symbol_72 (_ bv0 32))))
(assert (not (bvsge symbol_71 (_ bv0 32))))
(assert (not (bvsge symbol_69 (_ bv0 32))))
(assert (not (bvsge symbol_67 (_ bv0 32))))
(assert (not (bvsge symbol_64 (_ bv0 32))))
(assert (not (bvsge symbol_63 (_ bv0 32))))
(assert (not (bvsge symbol_61 (_ bv0 32))))
(assert (not (bvsge symbol_59 (_ bv0 32))))
(assert (not (bvsge symbol_57 (_ bv0 32))))
(assert (not (bvsge symbol_56 (_ bv0 32))))
(assert (not (bvsge symbol_54 (_ bv0 32))))
(assert (not (bvsge symbol_53 (_ bv0 32))))
(assert (not (bvsge symbol_51 (_ bv0 32))))
(assert (not (bvsge symbol_49 (_ bv0 32))))
(assert (not (bvsge symbol_48 (_ bv0 32))))
(assert (not (bvsge symbol_46 (_ bv0 32))))
(assert (not (bvsge symbol_44 (_ bv0 32))))
(assert (not (bvsge symbol_43 (_ bv0 32))))
(assert (not (bvsge symbol_41 (_ bv0 32))))
(assert (not (bvsge symbol_38 (_ bv0 32))))
(assert (not (bvsge symbol_36 (_ bv0 32))))
(assert (not (bvsge symbol_34 (_ bv0 32))))
(assert (not (bvsge symbol_32 (_ bv0 32))))
(assert (not (bvsge symbol_30 (_ bv0 32))))
(assert (not (bvsge symbol_28 (_ bv0 32))))
(assert (not (bvsge symbol_26 (_ bv0 32))))
(assert (not (bvsge symbol_24 (_ bv0 32))))
(assert (not (bvsge symbol_21 (_ bv0 32))))
(assert (not (bvsge symbol_19 (_ bv0 32))))
(assert (not (bvsge symbol_17 (_ bv0 32))))
(assert (not (bvsge symbol_15 (_ bv0 32))))
(assert (not (bvsge symbol_13 (_ bv0 32))))
(assert (not (bvsge symbol_11 (_ bv0 32))))
(assert (not (bvsge symbol_9 (_ bv0 32))))
(assert (not (bvsge symbol_7 (_ bv0 32))))
(assert (not (bvsge symbol_5 (_ bv0 32))))
(assert (not (bvsge symbol_2 (_ bv0 32))))
(assert (bvsge symbol_0 (_ bv0 32)))
(check-sat)